(set-logic QF_S)
(declare-fun var0 () String)
(declare-fun var1 () String)
(declare-fun var2 () Int)
(declare-fun var3 () String)
(declare-fun var4 () String)
(declare-fun var5 () Int)
(assert (< (str.indexof var0 var1 var2) (str.to.int var3)))
(assert (str.prefixof var4 ""))
(assert (>= (str.len "MyyteA::&") (str.len var1)))
(assert (< (str.indexof var0 var0 var5) (str.to.int var3)))
(check-sat)